DIMENSION: 6
EDGE_WEIGHT_TYPE: EXPLICIT
EDGE_WEIGHT_FORMAT: FULL_MATRIX
EDGE_WEIGHT_SECTION:
32767 32767 32767 93 32767 85 
32767 32767 97 32767 12 69 
32767 97 32767 86 32767 24 
93 32767 86 32767 32767 42 
32767 12 32767 32767 32767 52 
85 69 24 42 52 32767 
EOF